
Gurobi 9.1.1 (mac64, gurobi_cl) logging started Tue Oct 17 15:56:41 2023


Gurobi 9.1.1 (mac64, gurobi_cl) logging started Tue Oct 17 15:57:01 2023


Gurobi 9.1.1 (mac64, gurobi_cl) logging started Tue Oct 17 16:00:08 2023


Gurobi 9.1.1 (mac64, gurobi_cl) logging started Tue Oct 17 16:01:22 2023


Gurobi 9.1.1 (mac64, gurobi_cl) logging started Tue Oct 17 16:01:48 2023


Gurobi 9.1.1 (mac64, gurobi_cl) logging started Tue Oct 17 16:03:25 2023


Gurobi 9.1.1 (mac64, gurobi_cl) logging started Tue Oct 17 16:03:44 2023


Gurobi 9.1.1 (mac64, gurobi_cl) logging started Tue Oct 17 16:03:54 2023


Gurobi 9.1.1 (mac64, gurobi_cl) logging started Tue Oct 17 16:04:11 2023


Gurobi 9.1.1 (mac64, gurobi_cl) logging started Tue Oct 17 16:04:53 2023


Gurobi 9.1.1 (mac64, gurobi_cl) logging started Tue Oct 17 16:05:01 2023


Gurobi 9.1.1 (mac64, gurobi_cl) logging started Tue Oct 17 16:05:36 2023


Gurobi 9.1.1 (mac64, gurobi_cl) logging started Tue Oct 17 16:06:30 2023


Gurobi 9.1.1 (mac64, gurobi_cl) logging started Tue Oct 17 16:06:56 2023


Gurobi 9.1.1 (mac64, gurobi_cl) logging started Tue Oct 17 16:07:09 2023


Gurobi 9.1.1 (mac64, gurobi_cl) logging started Tue Oct 17 16:07:26 2023


Gurobi 9.1.1 (mac64, gurobi_cl) logging started Tue Oct 17 16:07:42 2023


Gurobi 9.1.1 (mac64, gurobi_cl) logging started Tue Oct 17 16:13:30 2023


Gurobi 9.1.1 (mac64, gurobi_cl) logging started Tue Oct 17 16:17:48 2023


Gurobi 9.1.1 (mac64, gurobi_cl) logging started Tue Oct 17 16:20:45 2023


Gurobi 9.1.1 (mac64, gurobi_cl) logging started Tue Oct 17 16:21:33 2023


Gurobi 9.1.1 (mac64, gurobi_cl) logging started Tue Oct 17 16:22:08 2023


Gurobi 9.1.1 (mac64, gurobi_cl) logging started Tue Oct 17 16:22:38 2023


Gurobi 9.1.1 (mac64, gurobi_cl) logging started Tue Oct 17 16:25:47 2023


Gurobi 9.1.1 (mac64, gurobi_cl) logging started Tue Oct 17 16:27:04 2023


Gurobi 9.1.1 (mac64, gurobi_cl) logging started Tue Oct 17 16:27:53 2023


Gurobi 9.1.1 (mac64, gurobi_cl) logging started Tue Oct 17 16:33:30 2023


Gurobi 9.1.1 (mac64, gurobi_cl) logging started Tue Oct 17 16:33:56 2023


Gurobi 9.1.1 (mac64, gurobi_cl) logging started Tue Oct 17 16:37:36 2023


Gurobi 9.1.1 (mac64, gurobi_cl) logging started Tue Oct 17 16:41:24 2023


Gurobi 9.1.1 (mac64, gurobi_cl) logging started Tue Oct 17 16:42:04 2023


Gurobi 9.1.1 (mac64, gurobi_cl) logging started Tue Oct 17 16:42:40 2023


Gurobi 9.1.1 (mac64, gurobi_cl) logging started Tue Oct 17 16:43:03 2023


Gurobi 9.1.1 (mac64, gurobi_cl) logging started Tue Oct 17 16:44:34 2023


Gurobi 9.1.1 (mac64, gurobi_cl) logging started Tue Oct 17 16:44:41 2023


Gurobi 9.1.1 (mac64, gurobi_cl) logging started Tue Oct 17 16:46:07 2023


Gurobi 9.1.1 (mac64, gurobi_cl) logging started Tue Oct 17 16:50:15 2023


Gurobi 9.1.1 (mac64, gurobi_cl) logging started Tue Oct 17 17:04:54 2023


Gurobi 9.1.1 (mac64, gurobi_cl) logging started Wed Oct 18 08:52:45 2023


Gurobi 9.1.1 (mac64, gurobi_cl) logging started Wed Oct 18 08:52:59 2023

